N = 12;
H = 5;
T = 2;

avail = array3d(1..N, 1..H, 1..T, [5, 3, 5, 6, 1, 5, 10, 2, 8, 10, 7, 0, 10, 9, 6, 6, 0, 2, 6, 7, 5, 5, 2, 1, 9, 3, 0, 2, 7, 7, 4, 10, 6, 5, 5, 4, 6, 3, 7, 7, 4, 1, 3, 6, 4, 3, 5, 2, 9, 10, 8, 9, 10, 5, 2, 5, 0, 5, 4, 5, 10, 6, 0, 8, 2, 4, 9, 4, 0, 2, 5, 6, 4, 6, 7, 7, 2, 5, 4, 2, 2, 8, 5, 7, 6, 0, 3, 0, 8, 10, 1, 1, 4, 9, 0, 1, 1, 7, 3, 1, 7, 9, 2, 10, 6, 4, 3, 7, 0, 10, 2, 0, 9, 5, 3, 0, 7, 1, 4, 4]);

r = array2d(1..H, 1..T, [2, 1, 5, 6, 3, 4, 4, 4, 1, 2]);
